z1,z2,z3,nondominated
8,3,9,0
4,6,10,0
10,8,7,0
3,6,9,0
10,2,6,0
4,2,6,0
2,2,5,0
4,9,6,0
8,7,1,0
4,8,5,0
7,4,9,0
3,2,8,0
6,9,2,0
4,5,9,0
2,5,9,0
3,5,8,0
4,1,3,0
10,8,7,0
5,10,6,0
6,4,10,0
8,6,2,0
6,10,5,0
5,7,3,0
9,5,3,0
3,1,3,0
5,10,3,0
5,3,8,0
10,9,10,0
3,10,3,0
10,7,9,0
2,5,8,0
5,8,1,0
1,9,4,0
10,2,10,0
10,7,8,0
4,5,2,0
1,1,1,0
1,1,1,0
1,1,1,0
1,1,1,0
1,1,1,0
1,1,1,0
